(set-info :smt-lib-version 2.6)
(set-logic QF_S)
(set-info :source |
Generated by: Hongjian Jiang, Oliver Markgraf, Daniel Stan, Anthony W. Lin, Philipp Ruemmer
Generated on: 2025-04-11
Application: Using String Solvers to solve RMC problems encoded as CHC over Strings
Target solver: cvc5, OSTRICH, Z3, Z3alpha, Z3-noodler
Time limit: 60.0
Benchmarks are extracted by running HornStr https://arg-git.informatik.uni-kl.de/pub/string-chc-lib on all benchmarks
provided in the repository and gathering the string queries sent to the string solvers.
|)
(set-info :license "https://creativecommons.org/licenses/by/4.0/")
(set-info :category "industrial")
(declare-fun X () String)
(assert (let ((a!1 (re.union (re.union (re.union (str.to_re "E") (str.to_re "O"))
                               (str.to_re "1"))
                     (str.to_re "W"))))
(let ((a!2 (re.* (re.union (re.union a!1 (str.to_re "0")) (str.to_re "B")))))
  (str.in_re X a!2))))
(assert (let ((a!1 (re.++ (str.to_re "0")
                  (re.++ (re.* (str.to_re "0")) (str.to_re "B"))))
      (a!3 (re.union (str.to_re "")
                     (re.++ (str.to_re "1") (re.* (str.to_re "1"))))))
(let ((a!2 (re.++ (str.to_re "O")
                  (re.++ (re.* (str.to_re "0")) (re.union (str.to_re "B") a!1))))
      (a!5 (re.union (str.to_re "") (re.++ (re.* (str.to_re "1")) a!3))))
(let ((a!4 (re.++ a!2 (re.++ (re.* (str.to_re "1")) a!3)))
      (a!6 (re.++ (str.to_re "0") (re.++ (re.* (str.to_re "0")) a!5))))
(let ((a!7 (re.++ (re.++ (str.to_re "E") (str.to_re "W"))
                  (re.++ (re.* (str.to_re "0")) (re.union a!5 a!6)))))
  (and (str.in_re X (re.union a!4 a!7)) true))))))
(push 1)
(assert (str.in_re X (str.to_re "")))
(set-info :status unknown)
(check-sat)
(pop 1)
(push 1)
(assert (let ((a!1 (re.union (re.union (re.union (str.to_re "E") (str.to_re "O"))
                               (str.to_re "1"))
                     (str.to_re "W"))))
  (str.in_re X (re.union (re.union a!1 (str.to_re "0")) (str.to_re "B")))))
(set-info :status unknown)
(check-sat)
(pop 1)
(push 1)
(assert (let ((a!1 (re.union (re.union (re.union (str.to_re "E") (str.to_re "O"))
                               (str.to_re "1"))
                     (str.to_re "W"))))
(let ((a!2 (re.++ (re.union (re.union a!1 (str.to_re "0")) (str.to_re "B"))
                  (re.union (re.union a!1 (str.to_re "0")) (str.to_re "B")))))
  (str.in_re X a!2))))
(set-info :status unknown)
(check-sat)
(assert (distinct X "OB"))
(set-info :status unknown)
(check-sat)
(assert (distinct X "EW"))
(set-info :status unknown)
(check-sat)
(pop 1)
(push 1)
(assert (let ((a!1 (re.union (re.union (re.union (str.to_re "E") (str.to_re "O"))
                               (str.to_re "1"))
                     (str.to_re "W"))))
(let ((a!2 (re.++ (re.union (re.union a!1 (str.to_re "0")) (str.to_re "B"))
                  (re.union (re.union a!1 (str.to_re "0")) (str.to_re "B")))))
(let ((a!3 (re.++ a!2 (re.union (re.union a!1 (str.to_re "0")) (str.to_re "B")))))
  (str.in_re X a!3)))))
(set-info :status unknown)
(check-sat)
(assert (distinct X "O0B"))
(set-info :status unknown)
(check-sat)
(assert (distinct X "OB1"))
(set-info :status unknown)
(check-sat)
(assert (distinct X "EW0"))
(set-info :status unknown)
(check-sat)
(assert (distinct X "EW1"))
(set-info :status unknown)
(check-sat)
(pop 1)
(push 1)
(assert (let ((a!1 (re.union (re.union (re.union (str.to_re "E") (str.to_re "O"))
                               (str.to_re "1"))
                     (str.to_re "W"))))
(let ((a!2 (re.++ (re.union (re.union a!1 (str.to_re "0")) (str.to_re "B"))
                  (re.union (re.union a!1 (str.to_re "0")) (str.to_re "B")))))
(let ((a!3 (re.++ a!2 (re.union (re.union a!1 (str.to_re "0")) (str.to_re "B")))))
(let ((a!4 (re.++ a!3 (re.union (re.union a!1 (str.to_re "0")) (str.to_re "B")))))
  (str.in_re X a!4))))))
(set-info :status unknown)
(check-sat)
(assert (distinct X "O00B"))
(set-info :status unknown)
(check-sat)
(assert (distinct X "OB11"))
(set-info :status unknown)
(check-sat)
(assert (distinct X "O0B1"))
(set-info :status unknown)
(check-sat)
(assert (distinct X "EW00"))
(set-info :status unknown)
(check-sat)
(assert (distinct X "EW11"))
(set-info :status unknown)
(check-sat)
(assert (distinct X "EW01"))
(set-info :status unknown)
(check-sat)
(pop 1)
(check-sat)
(exit)
